cpu-bind=MASK - n2lcn0129, task  0  0 [742166]: mask |--------|--------||--------|--------||--------|--------||--------|--------||||--------|--------||--------|--------||--------|BBBB----||--------|--------|  set
started at Fri Mar 17 12:18:50 CET 2023
Timecheck 10015677.848012146
Set parameter TokenServer to value "license3.uni-paderborn.de"
Warning: Gurobi version mismatch between Python 10.0.1 and C library 10.0.0
Timecheck 10015677.853144027
Timecheck 10015677.853372067
Timecheck 10015677.853410568
Timecheck 10015677.853439698


####################################################################################################
Solve scenario sce_5_26_1 with free vessel operation using the arc flow model
Vessels cannot omit ports, Demands can be rejected
####################################################################################################
Data preprocessing, load /upb/departments/pc2/groups/hpc-prf-winf4/dwetzel/SILSRP/inst_final/sce_5_26_1
and create additional sets and parameters
	|- Read vessel information, number of vessels:	10
	|- Read node information, number of nodes:		554
	|- Read arc information
		|- Number of sailing arcs:			3104
		|- Number of transshipment arcs:	977
	|- Read container information
		|- Number of demands:		1239
		|- Number of empties (+/-):	227/251
	|- Create additional sets and parameters

Data preprocessing took 	00:00:00.744
####################################################################################################
Create linear model
Set parameter Threads to value 4
	|- Create variables, took	00:00:01.148
	|- Create objective, took	00:00:00.888
	|- Create constraints, took	00:00:03.250
	|- Load heuristic start

Creating model took	00:00:05.428
####################################################################################################
Fix start solution

Set parameter TimeLimit to value 7.9315236775064841e+04
Gurobi Optimizer version 10.0.0 build v10.0.0rc2 (linux64)

CPU model: AMD EPYC 7763 64-Core Processor, instruction set [SSE2|AVX|AVX2]
Thread count: 128 physical cores, 128 logical processors, using up to 4 threads

Optimize a model with 62959 rows, 290244 columns and 992808 nonzeros
Model fingerprint: 0x2f0bdb0c
Variable types: 257422 continuous, 32822 integer (32822 binary)
Coefficient statistics:
  Matrix range     [1e+00, 3e+05]
  Objective range  [1e+00, 1e+00]
  Bounds range     [1e+00, 3e+02]
  RHS range        [1e+00, 9e+07]
Presolve removed 54836 rows and 268502 columns
Presolve time: 0.72s
Presolved: 8123 rows, 21742 columns, 61571 nonzeros
Variable types: 20646 continuous, 1096 integer (1092 binary)

Root relaxation: objective 3.680667e+07, 2548 iterations, 0.03 seconds (0.02 work units)

    Nodes    |    Current Node    |     Objective Bounds      |     Work
 Expl Unexpl |  Obj  Depth IntInf | Incumbent    BestBd   Gap | It/Node Time

     0     0 3.6807e+07    0    1          - 3.6807e+07      -     -    0s
H    0     0                    3.681655e+07 3.6807e+07  0.03%     -    0s
H    0     0                    3.681035e+07 3.6807e+07  0.01%     -    0s

Explored 1 nodes (2548 simplex iterations) in 0.95 seconds (0.80 work units)
Thread count was 4 (of 128 available processors)

Solution count 2: 3.68103e+07 3.68166e+07 

Optimal solution found (tolerance 1.00e-04)
Best objective 3.681034700000e+07, best bound 3.680666900000e+07, gap 0.0100%

Fixing start solution took	00:00:06.498
####################################################################################################
####################################################################################################
Solve optimization model

Set parameter TimeLimit to value 7.9314255272893235e+04
Gurobi Optimizer version 10.0.0 build v10.0.0rc2 (linux64)

CPU model: AMD EPYC 7763 64-Core Processor, instruction set [SSE2|AVX|AVX2]
Thread count: 128 physical cores, 128 logical processors, using up to 4 threads

Optimize a model with 62406 rows, 290244 columns and 992255 nonzeros
Model fingerprint: 0x3c5fd829
Variable types: 257422 continuous, 32822 integer (32822 binary)
Coefficient statistics:
  Matrix range     [1e+00, 3e+05]
  Objective range  [1e+00, 1e+00]
  Bounds range     [1e+00, 3e+02]
  RHS range        [1e+00, 9e+07]

MIP start from previous solve produced solution with objective 3.68103e+07 (0.62s)
Loaded MIP start from previous solve with objective 3.68103e+07

Presolve removed 7777 rows and 15907 columns
Presolve time: 3.63s
Presolved: 54629 rows, 274337 columns, 802571 nonzeros
Variable types: 244853 continuous, 29484 integer (29484 binary)
Deterministic concurrent LP optimizer: primal simplex, dual simplex, and barrier
Showing barrier log only...

Root barrier log...

Ordering time: 3.31s

Barrier statistics:
 AA' NZ     : 7.407e+05
 Factor NZ  : 1.221e+07 (roughly 230 MB of memory)
 Factor Ops : 8.132e+09 (less than 1 second per iteration)
 Threads    : 2

                  Objective                Residual
Iter       Primal          Dual         Primal    Dual     Compl     Time
   0   4.52701446e+16 -2.75305085e+15  2.98e+10 5.53e+03  2.21e+13     9s
   1   1.00738756e+16 -6.67504142e+14  6.50e+09 1.08e+04  4.92e+12     9s
   2   9.12899022e+14 -1.37487303e+14  5.87e+08 9.80e+02  4.47e+11     9s
   3   9.17220601e+13 -4.76585243e+13  5.88e+07 3.00e-09  4.52e+10    10s
   4   1.74142220e+13 -1.16118412e+13  1.11e+07 6.26e-10  8.66e+09    10s
   5   2.36516109e+12 -2.62139748e+12  1.51e+06 1.16e-09  1.19e+09    10s
   6   3.97742405e+11 -9.73866891e+11  2.53e+05 7.42e-10  2.02e+08    11s
   7   6.48512628e+10 -4.94253311e+11  4.11e+04 4.80e-10  3.38e+07    11s
   8   1.52347115e+10 -2.81243019e+11  9.58e+03 5.24e-10  8.17e+06    11s
   9   4.04602129e+09 -1.93658593e+11  2.48e+03 8.73e-10  2.25e+06    12s
  10   1.43975241e+09 -1.31159954e+11  8.17e+02 1.86e-09  8.04e+05    12s
  11   5.35782916e+08 -6.78133436e+10  2.51e+02 1.05e-09  2.66e+05    12s
  12   2.28033162e+08 -3.37562937e+10  7.61e+01 5.68e-10  9.72e+04    13s
  13   1.48906943e+08 -1.59301376e+10  3.46e+01 2.21e-09  4.37e+04    13s
  14   1.12249260e+08 -8.36414128e+09  1.69e+01 2.79e-09  2.18e+04    13s
  15   9.08792375e+07 -3.87710700e+09  8.27e+00 9.43e-09  1.00e+04    14s
  16   7.72946026e+07 -1.85279645e+09  4.20e+00 2.21e-09  4.75e+03    14s
  17   6.85700467e+07 -1.06777449e+09  2.41e+00 1.75e-09  2.71e+03    14s
  18   6.15782748e+07 -5.87988940e+08  1.45e+00 4.01e-09  1.54e+03    14s
  19   5.82365171e+07 -4.07375046e+08  1.12e+00 2.77e-09  1.12e+03    15s
  20   5.37039526e+07 -2.17364433e+08  7.03e-01 2.41e-09  6.55e+02    15s
  21   4.73191110e+07 -8.79707605e+07  2.92e-01 4.13e-09  3.13e+02    16s
  22   4.27570954e+07 -4.17111945e+07  1.13e-01 3.45e-09  1.79e+02    16s
  23   4.07498000e+07 -1.51761456e+07  8.04e-02 3.09e-09  1.20e+02    16s
  24   3.93052150e+07  2.29712241e+03  6.01e-02 3.24e-09  8.55e+01    16s
  25   3.67744443e+07  9.48935328e+06  3.28e-02 3.48e-09  5.73e+01    17s
  26   3.43531507e+07  1.76801333e+07  1.47e-02 3.11e-09  3.38e+01    17s
  27   3.23187094e+07  2.26381612e+07  5.77e-03 2.89e-09  1.90e+01    17s
  28   3.14239881e+07  2.52760112e+07  3.24e-03 2.95e-09  1.20e+01    18s
  29   3.09241162e+07  2.65848612e+07  2.10e-03 3.03e-09  8.44e+00    18s
  30   3.06215531e+07  2.71055217e+07  1.46e-03 3.29e-09  6.78e+00    18s
  31   3.04166958e+07  2.74422299e+07  1.05e-03 3.74e-09  5.69e+00    19s
  32   3.01807145e+07  2.81723024e+07  6.00e-04 2.24e-08  3.82e+00    19s
  33   3.00172689e+07  2.88277797e+07  3.16e-04 3.37e-09  2.26e+00    19s
  34   2.98870512e+07  2.91258849e+07  1.14e-04 8.21e-09  1.42e+00    20s
  35   2.98417503e+07  2.94640274e+07  5.59e-05 6.36e-08  7.06e-01    20s
  36   2.98203610e+07  2.95660425e+07  3.15e-05 2.47e-08  4.74e-01    20s
  37   2.98034369e+07  2.96442376e+07  1.37e-05 4.81e-08  2.94e-01    21s
  38   2.97964036e+07  2.96956575e+07  7.36e-06 6.98e-08  1.86e-01    21s
  39   2.97919992e+07  2.97444563e+07  3.87e-06 3.17e-08  8.80e-02    21s
  40   2.97892533e+07  2.97639993e+07  2.48e-06 6.05e-08  4.64e-02    22s
  41   2.97890986e+07  2.97660879e+07  2.19e-06 1.83e-08  4.22e-02    22s
  42   2.97885728e+07  2.97758472e+07  1.22e-06 3.26e-08  2.34e-02    22s
  43   2.97881539e+07  2.97832006e+07  5.35e-07 2.99e-08  9.12e-03    23s
  44   2.97879982e+07  2.97857986e+07  3.53e-07 2.64e-08  4.06e-03    23s
  45   2.97878776e+07  2.97877122e+07  1.12e-06 3.21e-08  3.22e-04    24s
  46   2.97878509e+07  2.97878479e+07  3.21e-08 2.49e-07  6.56e-06    24s
  47   2.97878499e+07  2.97878498e+07  1.74e-07 1.35e-06  1.39e-07    24s
  48   2.97878498e+07  2.97878498e+07  2.49e-08 1.06e-04  6.89e-10    25s

Barrier solved model in 48 iterations and 24.56 seconds (26.29 work units)
Optimal objective 2.97878498e+07


Root crossover log...

   45277 DPushes remaining with DInf 0.0000000e+00                25s
    4278 DPushes remaining with DInf 0.0000000e+00                25s
       0 DPushes remaining with DInf 3.7357677e-06                26s

    3316 PPushes remaining with PInf 0.0000000e+00                26s
       0 PPushes remaining with PInf 0.0000000e+00                26s

  Push phase complete: Pinf 0.0000000e+00, Dinf 2.4446862e-05     26s


Root simplex log...

Iteration    Objective       Primal Inf.    Dual Inf.      Time
   47477    2.9787850e+07   0.000000e+00   5.804367e-05     26s
   48304    2.9787850e+07   1.335868e+06   0.000000e+00     31s
   49024    2.9787851e+07   2.121119e+05   0.000000e+00     36s
   49544    2.9787851e+07   2.566085e+05   0.000000e+00     41s
   50054    2.9787851e+07   2.120654e+05   0.000000e+00     46s
   50414    2.9787852e+07   3.887276e+04   0.000000e+00     50s
   50884    2.9787852e+07   2.861418e+04   0.000000e+00     56s
   51244    2.9787852e+07   1.443174e+04   0.000000e+00     60s
   51724    2.9787852e+07   1.229828e+04   0.000000e+00     66s
   52204    2.9787852e+07   4.039361e+03   0.000000e+00     71s
   52564    2.9787852e+07   4.302492e+03   0.000000e+00     75s
   53024    2.9787852e+07   4.437566e+03   0.000000e+00     81s
   53384    2.9787852e+07   1.736990e+03   0.000000e+00     86s
   53764    2.9787852e+07   1.246982e+03   0.000000e+00     91s
   54124    2.9787852e+07   6.379632e+02   0.000000e+00     96s
   54484    2.9787852e+07   2.949715e+02   0.000000e+00    101s
   54844    2.9787852e+07   3.848323e+01   0.000000e+00    106s
   55036    2.9787850e+07   0.000000e+00   0.000000e+00    109s
Concurrent spin time: 21.31s (can be avoided by choosing Method=3)

Solved with barrier
   55036    2.9787850e+07   0.000000e+00   7.911411e-06    130s
   55522    2.9787850e+07   9.063717e+02   0.000000e+00    136s
   55882    2.9787850e+07   1.045788e+02   0.000000e+00    141s
   56115    2.9787850e+07   0.000000e+00   0.000000e+00    144s
Extra simplex iterations after uncrush: 1079

Root relaxation: objective 2.978785e+07, 56115 iterations, 139.63 seconds (98.04 work units)

    Nodes    |    Current Node    |     Objective Bounds      |     Work
 Expl Unexpl |  Obj  Depth IntInf | Incumbent    BestBd   Gap | It/Node Time

     0     0 2.9788e+07    0 3463 3.6810e+07 2.9788e+07  19.1%     -  147s
     0     0 2.9788e+07    0 3610 3.6810e+07 2.9788e+07  19.1%     -  181s
     0     0 3.0585e+07    0 3463 3.6810e+07 3.0585e+07  16.9%     - 1945s
     0     0 3.0585e+07    0 3609 3.6810e+07 3.0585e+07  16.9%     - 2209s
     0     0 3.0631e+07    0 3532 3.6810e+07 3.0631e+07  16.8%     - 3946s
     0     0 3.0631e+07    0 3613 3.6810e+07 3.0631e+07  16.8%     - 4261s
     0     0 3.0645e+07    0 3529 3.6810e+07 3.0645e+07  16.7%     - 4988s
     0     0 3.0645e+07    0 3732 3.6810e+07 3.0645e+07  16.7%     - 5103s
     0     0 3.0646e+07    0 3577 3.6810e+07 3.0646e+07  16.7%     - 5809s
     0     0 3.0646e+07    0 3568 3.6810e+07 3.0646e+07  16.7%     - 5981s
     0     0 3.0646e+07    0 3607 3.6810e+07 3.0646e+07  16.7%     - 6444s
     0     0 3.0646e+07    0 3673 3.6810e+07 3.0646e+07  16.7%     - 6672s
     0     0 3.0903e+07    0 3861 3.6810e+07 3.0903e+07  16.0%     - 9805s
     0     0 3.0903e+07    0 3876 3.6810e+07 3.0903e+07  16.0%     - 10115s
     0     0 3.1033e+07    0 3817 3.6810e+07 3.1033e+07  15.7%     - 14114s
     0     0 3.1033e+07    0 3814 3.6810e+07 3.1033e+07  15.7%     - 14374s
     0     0 3.1058e+07    0 3852 3.6810e+07 3.1058e+07  15.6%     - 15042s
     0     0 3.1058e+07    0 3849 3.6810e+07 3.1058e+07  15.6%     - 15129s
     0     0 3.1063e+07    0 3866 3.6810e+07 3.1063e+07  15.6%     - 15685s
     0     0 3.1063e+07    0 3833 3.6810e+07 3.1063e+07  15.6%     - 15996s
     0     0 3.1065e+07    0 3838 3.6810e+07 3.1065e+07  15.6%     - 16504s
     0     0 3.1065e+07    0 3923 3.6810e+07 3.1065e+07  15.6%     - 16630s
     0     0 3.1066e+07    0 3923 3.6810e+07 3.1066e+07  15.6%     - 17181s
     0     0 3.1066e+07    0 3915 3.6810e+07 3.1066e+07  15.6%     - 17338s
     0     0 3.1067e+07    0 3904 3.6810e+07 3.1067e+07  15.6%     - 17796s
     0     0 3.1068e+07    0 3927 3.6810e+07 3.1068e+07  15.6%     - 17915s
     0     0 3.1068e+07    0 3977 3.6810e+07 3.1068e+07  15.6%     - 18045s
     0     0 3.1068e+07    0 3879 3.6810e+07 3.1068e+07  15.6%     - 18365s
     0     0 3.1068e+07    0 3884 3.6810e+07 3.1068e+07  15.6%     - 18435s
     0     0 3.1196e+07    0 3937 3.6810e+07 3.1196e+07  15.3%     - 20146s
     0     0 3.1196e+07    0 3910 3.6810e+07 3.1196e+07  15.3%     - 20187s
     0     0 3.1253e+07    0 4031 3.6810e+07 3.1253e+07  15.1%     - 22172s
     0     0 3.1253e+07    0 3961 3.6810e+07 3.1253e+07  15.1%     - 22345s
     0     0 3.1274e+07    0 3972 3.6810e+07 3.1274e+07  15.0%     - 23393s
     0     0 3.1274e+07    0 3912 3.6810e+07 3.1274e+07  15.0%     - 23486s
     0     0 3.1282e+07    0 4021 3.6810e+07 3.1282e+07  15.0%     - 24605s
     0     0 3.1282e+07    0 3982 3.6810e+07 3.1282e+07  15.0%     - 24827s
     0     0 3.1285e+07    0 4001 3.6810e+07 3.1285e+07  15.0%     - 25455s
     0     0 3.1285e+07    0 4028 3.6810e+07 3.1285e+07  15.0%     - 25640s
     0     0 3.1287e+07    0 3967 3.6810e+07 3.1287e+07  15.0%     - 26467s
     0     0 3.1287e+07    0 4060 3.6810e+07 3.1287e+07  15.0%     - 26522s
     0     0 3.1288e+07    0 3963 3.6810e+07 3.1288e+07  15.0%     - 26994s
     0     0 3.1288e+07    0 3956 3.6810e+07 3.1288e+07  15.0%     - 27121s
     0     0 3.1288e+07    0 3994 3.6810e+07 3.1288e+07  15.0%     - 27491s
     0     0 3.1288e+07    0 4097 3.6810e+07 3.1288e+07  15.0%     - 27588s
     0     0 3.1289e+07    0 4009 3.6810e+07 3.1289e+07  15.0%     - 28027s
     0     0 3.1289e+07    0 3994 3.6810e+07 3.1289e+07  15.0%     - 28182s
     0     0 3.1289e+07    0 4046 3.6810e+07 3.1289e+07  15.0%     - 28506s
     0     0 3.1289e+07    0 4026 3.6810e+07 3.1289e+07  15.0%     - 28671s
     0     0 3.1362e+07    0 4044 3.6810e+07 3.1362e+07  14.8%     - 31049s
     0     0 3.1362e+07    0 4115 3.6810e+07 3.1362e+07  14.8%     - 31389s
     0     0 3.1397e+07    0 3964 3.6810e+07 3.1397e+07  14.7%     - 41651s
     0     0 3.1397e+07    0 4009 3.6810e+07 3.1397e+07  14.7%     - 41918s
     0     0 3.1412e+07    0 4041 3.6810e+07 3.1412e+07  14.7%     - 43099s
     0     0 3.1412e+07    0 4048 3.6810e+07 3.1412e+07  14.7%     - 43249s
     0     0 3.1420e+07    0 4176 3.6810e+07 3.1420e+07  14.6%     - 44121s
     0     0 3.1420e+07    0 4097 3.6810e+07 3.1420e+07  14.6%     - 44249s
     0     0 3.1423e+07    0 4075 3.6810e+07 3.1423e+07  14.6%     - 45118s
     0     0 3.1423e+07    0 4083 3.6810e+07 3.1423e+07  14.6%     - 45370s
     0     0 3.1426e+07    0 4065 3.6810e+07 3.1426e+07  14.6%     - 46244s
     0     0 3.1426e+07    0 4120 3.6810e+07 3.1426e+07  14.6%     - 46334s
     0     0 3.1427e+07    0 4069 3.6810e+07 3.1427e+07  14.6%     - 46956s
     0     0 3.1427e+07    0 4044 3.6810e+07 3.1427e+07  14.6%     - 47267s
     0     0 3.1428e+07    0 4017 3.6810e+07 3.1428e+07  14.6%     - 47831s
     0     0 3.1428e+07    0 4042 3.6810e+07 3.1428e+07  14.6%     - 48064s
     0     0 3.1428e+07    0 4093 3.6810e+07 3.1428e+07  14.6%     - 48534s
     0     0 3.1428e+07    0 4141 3.6810e+07 3.1428e+07  14.6%     - 48604s
     0     0 3.1484e+07    0 4051 3.6810e+07 3.1484e+07  14.5%     - 50996s
     0     0 3.1484e+07    0 4106 3.6810e+07 3.1484e+07  14.5%     - 51212s
     0     0 3.1512e+07    0 4073 3.6810e+07 3.1512e+07  14.4%     - 52898s
     0     0 3.1512e+07    0 4080 3.6810e+07 3.1512e+07  14.4%     - 53082s
     0     0 3.1528e+07    0 4012 3.6810e+07 3.1528e+07  14.4%     - 54880s
     0     0 3.1528e+07    0 4015 3.6810e+07 3.1528e+07  14.4%     - 54892s
     0     0 3.1534e+07    0 4090 3.6810e+07 3.1534e+07  14.3%     - 55996s
     0     0 3.1534e+07    0 4073 3.6810e+07 3.1534e+07  14.3%     - 56113s
     0     0 3.1534e+07    0 4061 3.6810e+07 3.1534e+07  14.3%     - 56387s
     0     0 3.1537e+07    0 4080 3.6810e+07 3.1537e+07  14.3%     - 57382s
     0     0 3.1537e+07    0 4157 3.6810e+07 3.1537e+07  14.3%     - 57411s
     0     0 3.1539e+07    0 4055 3.6810e+07 3.1539e+07  14.3%     - 58201s
     0     0 3.1539e+07    0 4074 3.6810e+07 3.1539e+07  14.3%     - 58384s
     0     0 3.1540e+07    0 4130 3.6810e+07 3.1540e+07  14.3%     - 59012s
     0     0 3.1540e+07    0 4093 3.6810e+07 3.1540e+07  14.3%     - 59312s
     0     0 3.1541e+07    0 4111 3.6810e+07 3.1541e+07  14.3%     - 59946s
     0     0 3.1541e+07    0 4051 3.6810e+07 3.1541e+07  14.3%     - 60227s
     0     0 3.1541e+07    0 4163 3.6810e+07 3.1541e+07  14.3%     - 60729s
     0     0 3.1541e+07    0 4144 3.6810e+07 3.1541e+07  14.3%     - 61075s
     0     0 3.1593e+07    0 3950 3.6810e+07 3.1593e+07  14.2%     - 63510s
     0     0 3.1593e+07    0 3996 3.6810e+07 3.1593e+07  14.2%     - 63735s
     0     0 3.1610e+07    0 4012 3.6810e+07 3.1610e+07  14.1%     - 65254s
     0     0 3.1610e+07    0 4067 3.6810e+07 3.1610e+07  14.1%     - 65418s
     0     0 3.1619e+07    0 4094 3.6810e+07 3.1619e+07  14.1%     - 67869s
     0     0 3.1624e+07    0 4157 3.6810e+07 3.1624e+07  14.1%     - 69055s
     0     0 3.1624e+07    0 4146 3.6810e+07 3.1624e+07  14.1%     - 69226s
     0     0 3.1627e+07    0 4096 3.6810e+07 3.1627e+07  14.1%     - 70523s
     0     0 3.1627e+07    0 4120 3.6810e+07 3.1627e+07  14.1%     - 70735s
     0     0 3.1629e+07    0 4195 3.6810e+07 3.1629e+07  14.1%     - 71416s
     0     0 3.1629e+07    0 4121 3.6810e+07 3.1629e+07  14.1%     - 71673s
     0     0 3.1630e+07    0 4168 3.6810e+07 3.1630e+07  14.1%     - 72288s
     0     0 3.1630e+07    0 4110 3.6810e+07 3.1630e+07  14.1%     - 72483s
     0     0 3.1630e+07    0 4094 3.6810e+07 3.1630e+07  14.1%     - 72998s
     0     0 3.1630e+07    0 4126 3.6810e+07 3.1630e+07  14.1%     - 73395s
     0     0 3.1654e+07    0 4088 3.6810e+07 3.1654e+07  14.0%     - 75016s
     0     0 3.1654e+07    0 4088 3.6810e+07 3.1654e+07  14.0%     - 75017s
     0     0 3.1666e+07    0 4033 3.6810e+07 3.1666e+07  14.0%     - 77198s
     0     0 3.1666e+07    0 4061 3.6810e+07 3.1666e+07  14.0%     - 77365s
     0     0 3.1674e+07    0 4025 3.6810e+07 3.1674e+07  14.0%     - 78720s
     0     0 3.1674e+07    0 4045 3.6810e+07 3.1674e+07  14.0%     - 78906s
     0     0          -    0      3.6810e+07 3.1674e+07  14.0%     - 79314s

Cutting planes:
  Lift-and-project: 7
  Cover: 5
  Implied bound: 1125
  Clique: 10
  MIR: 583
  StrongCG: 1
  Flow cover: 3012
  GUB cover: 1
  Zero half: 2
  RLT: 921
  Relax-and-lift: 819

Explored 1 nodes (6367664 simplex iterations) in 79314.34 seconds (67034.19 work units)
Thread count was 4 (of 128 available processors)

Solution count 1: 3.68103e+07 

Time limit reached
Best objective 3.681034700000e+07, best bound 3.167377140508e+07, gap 13.9542%

Solving took 	22:01:54.353
####################################################################################################
####################################################################################################
####################################################################################################
Reached timelimit, but could find a feasible solution
####################################################################################################
Description                          Value
----------------------------  ------------
Objective (min)               36,810,347.0
Cost sailing                  14,336,577.0
Cost port visits              22,287,767.0
Cost transshipment (demands)   1,820,931.0
Cost transshipment (empties)     487,595.0
Penalty delayed demands        1,961,049.0
Revenue Empties                4,330,322.0
Penalty rejected demands         246,750.0
Rejected demands (%)                  0.36
Omitted ports (%)                      0.0
Gap (%)                              13.95
####################################################################################################
Export solution
####################################################################################################
Overall time 	22:02:01.998

real	1322m3.898s
user	1322m20.383s
sys	0m45.366s
finished at Sat Mar 18 10:20:54 CET 2023
